StudentsNr = 10;
InstructorsNr = 90;
DaysNr = 1;
SlotsPerDay = 40;
AvailabilitySlotsLenght = 10;
RoomNr = 1;
ProgrammNr = 2;
DegreeNr = 1;
RolesNr = 4;
CoursesNr = 5;
InstructorsProgramm = [{2}, {1}, {1, 2}, {2}, {2}, {1}, {2}, {1, 2}, {2}, {1}, {1}, {2}, {1}, {1}, {2}, {2}, {1}, {1}, {2}, {1}, {1}, {1, 2}, {1, 2}, {1}, {1, 2}, {1}, {2}, {1}, {1}, {1, 2}, {2}, {1, 2}, {1, 2}, {1}, {1}, {2}, {1, 2}, {1}, {2}, {1}, {2}, {2}, {1, 2}, {2}, {1}, {1}, {2}, {1}, {2}, {2}, {1, 2}, {2}, {1, 2}, {2}, {1, 2}, {1, 2}, {1, 2}, {1}, {2}, {2}, {1}, {1, 2}, {2}, {2}, {2}, {1, 2}, {2}, {1, 2}, {2}, {1, 2}, {1}, {1, 2}, {2}, {1}, {2}, {1}, {2}, {1, 2}, {2}, {1, 2}, {2}, {1}, {2}, {1}, {2}, {1}, {1}, {2}, {2}, {1}];
InstructorRolesPerProgramm = [|{6, 10, 13, 21, 26, 30, 34, 35, 37, 45, 48, 51, 58, 74, 80, 84, 86, 90}, {3, 6, 14, 17, 30, 33, 37, 40, 53, 61, 80, 82, 84, 86}, {6, 10, 13, 14, 20, 21, 24, 30, 33, 40, 46, 51, 55, 61, 62, 90}, {8, 10, 17, 20, 23, 24, 25, 26, 32, 40, 46, 53, 55, 57, 61, 62, 66, 72, 74, 80, 84, 86, 90}|{1, 5, 7, 9, 15, 16, 19, 27, 30, 31, 37, 39, 41, 49, 51, 54, 60, 65, 67, 75, 79, 80, 85, 88}, {3, 12, 16, 19, 27, 30, 31, 33, 37, 41, 44, 53, 64, 65, 75, 77, 79, 80, 85, 89}, {4, 5, 7, 12, 27, 30, 33, 36, 39, 42, 44, 49, 51, 55, 62, 63, 65, 75, 81, 89}, {8, 9, 12, 23, 25, 27, 32, 39, 42, 44, 49, 50, 53, 54, 55, 57, 62, 66, 67, 72, 73, 77, 80, 81, 88, 89}|];
InstructorsAvailability = [|1, 1, 0, 1, |0, 0, 1, 1, |0, 0, 1, 1, |1, 1, 1, 1, |1, 1, 1, 1, |0, 1, 1, 0, |0, 1, 1, 1, |1, 1, 1, 0, |0, 1, 1, 1, |1, 0, 1, 1, |0, 0, 1, 1, |1, 1, 1, 1, |1, 0, 0, 0, |0, 1, 1, 1, |0, 1, 1, 1, |0, 1, 1, 1, |0, 0, 1, 1, |1, 1, 1, 1, |1, 0, 0, 0, |1, 0, 1, 1, |1, 1, 1, 1, |1, 1, 1, 1, |1, 1, 1, 1, |0, 1, 1, 1, |0, 1, 1, 1, |1, 0, 0, 1, |1, 1, 1, 1, |1, 1, 1, 1, |0, 1, 1, 1, |0, 1, 1, 1, |0, 1, 1, 1, |1, 1, 1, 1, |0, 0, 0, 1, |0, 1, 1, 1, |0, 1, 1, 0, |1, 1, 1, 1, |0, 1, 1, 0, |0, 1, 0, 0, |1, 1, 1, 1, |0, 1, 1, 1, |0, 1, 1, 1, |1, 1, 1, 1, |1, 0, 1, 1, |1, 1, 1, 1, |0, 0, 1, 1, |0, 1, 0, 1, |1, 1, 1, 1, |1, 1, 1, 1, |1, 0, 0, 1, |0, 1, 1, 1, |0, 0, 1, 1, |1, 1, 1, 1, |0, 0, 1, 1, |0, 1, 0, 1, |1, 1, 1, 1, |1, 1, 1, 1, |1, 1, 1, 1, |1, 0, 0, 1, |0, 1, 1, 1, |0, 1, 1, 1, |0, 1, 1, 1, |0, 1, 1, 1, |1, 1, 1, 1, |0, 1, 1, 1, |0, 0, 0, 1, |1, 1, 1, 1, |0, 1, 1, 1, |1, 1, 1, 1, |0, 1, 1, 1, |0, 1, 1, 1, |0, 1, 0, 0, |1, 0, 0, 1, |1, 1, 1, 0, |0, 1, 1, 1, |1, 1, 1, 1, |1, 1, 1, 1, |0, 1, 1, 1, |1, 1, 1, 1, |0, 1, 1, 1, |1, 1, 1, 1, |1, 1, 0, 0, |0, 1, 1, 1, |1, 1, 1, 0, |1, 1, 1, 1, |0, 0, 0, 0, |0, 0, 0, 1, |1, 1, 0, 1, |0, 1, 1, 1, |0, 0, 1, 1, |1, 1, 0, 1|];
StudentsProgramm = [2, 2, 2, 2, 2, 1, 1, 2, 2, 1];
StudentsDegree = [1, 1, 1, 1, 1, 1, 1, 1, 1, 1];
StudentsSupervisorId = [36, 19, 32, 49, 79, 28, 62, 49, 73, 23];
StudentsCourseIds = [{1}, {5}, {4}, {3}, {2}, {2}, {3}, {3}, {4}, {2}];
StudentsAvailability = [|0, 1, 1, 1, |0, 0, 1, 0, |1, 1, 1, 1, |1, 1, 1, 1, |1, 0, 0, 0, |1, 1, 1, 1, |1, 1, 1, 1, |0, 1, 1, 0, |0, 1, 1, 1, |1, 1, 1, 1|];
TheoryticalMinCard = [0, 0, 0, 0, 0, 0, 0, 0, 0, 0];
CoursesInstructorIds = [{3, 4, 5, 9, 11, 12, 13, 14, 16, 17, 20, 21, 22, 24, 25, 29, 30, 31, 34, 35, 37, 38, 39, 40, 42, 43, 44, 45, 47, 50, 52, 54, 56, 58, 59, 60, 61, 63, 65, 69, 70, 71, 73, 75, 77, 78, 79, 80, 81, 82, 84, 85, 86, 88, 89}, {1, 2, 5, 6, 7, 8, 9, 10, 14, 15, 21, 24, 26, 28, 29, 31, 33, 34, 35, 40, 43, 48, 50, 52, 59, 60, 61, 65, 70, 71, 73, 79, 80, 81, 85, 87, 88, 90}, {2, 3, 4, 5, 7, 8, 10, 14, 19, 20, 23, 26, 28, 30, 33, 35, 43, 45, 46, 50, 51, 56, 57, 62, 63, 64, 65, 72, 73, 76, 79, 82, 88, 89, 90}, {2, 3, 6, 8, 13, 14, 15, 17, 18, 20, 21, 24, 26, 27, 28, 33, 38, 39, 40, 41, 43, 46, 54, 56, 60, 62, 63, 64, 65, 68, 69, 70, 72, 73, 74, 75, 76, 78, 84, 85, 88}, {2, 3, 55, 79}];
RolesDemands = [13, 8, 15, 13];
RolesContinuity = [4, 2, 3];
ExamLen = [1, 1, 1, 1, 1, 1, 1, 1, 1, 1];
LunchTsMinLen = 1;
LunchStarts = [18..21];
SupervisorAvailable = 5;
OptimalLunchLenght = [0, 1];
OptimalStartTs = [0, 0];
OptimalFinishTs = [2, 40];
MinimizeRooms = 100;
RolesSoftContinuity = [|1, 2, 3, 4|0, 0, 0, 4|];
SameDegreeInRoom = 20;
Mergeability = 2;
